SCIP version 5.0.0 [precision: 8 byte] [memory: block] [mode: optimized] [LP solver: NONE] [GitHash: 3bbd232]
Copyright (C) 2002-2017 Konrad-Zuse-Zentrum fuer Informationstechnik Berlin (ZIB)

External codes: 
  Readline EditLine w  GNU library for command line editing (gnu.org/s/readline)
  CppAD 20160000.1     Algorithmic Differentiation of C++ algorithms developed by B. Bell (www.coin-or.org/CppAD)
  ZLIB 1.2.5           General purpose compression library by J. Gailly and M. Adler (zlib.net)
  GMP 6.1.2            GNU Multiple Precision Arithmetic Library developed by T. Granlund (gmplib.org)

user parameter file <scip.set> not found - using default parameters

read problem <../../Split_data/output/statH/1/0_sample_statH.logreg>
============

File name	:	../../Split_data/output/statH/1/0_sample_statH.logreg
Problem name 	:	0_sample_statH
Number of data	:	216
Number of var	:	25
The given data has linear dependence
7 sets of column vector are linearly dependent:
{ 3 4}, { 5 6 7 8}, { 11 12}, { 13 14 15}, { 17 18}, { 20 21 22}, { 24 25 26}, 

[dim=1] time: 0.004347
[dim=2] time: 0.00921
[dim=3] time: 0.013961
[dim=4] time: 0.018534
[dim=5] time: 0.023353
[dim=6] time: 0.027222
[dim=7] time: 0.030747
[dim=8] time: 0.033908
[dim=9] Time of forward = 0.0372sec.
AIC: 132.452
k: 8

[dim=18] time: 0.005979
[dim=17] time: 0.010197
[dim=16] time: 0.01468
[dim=15] time: 0.017513
[dim=14] time: 0.02057
[dim=13] time: 0.023646
[dim=12] time: 0.026328
[dim=11] time: 0.029073
[dim=10] Time of backward = 0.033708sec.
AIC: 134.876
k: 11
